Ge8
1.0
11.5257244110 0.00000000000 0.00000000000
0.00000000000 11.5257244110 0.00000000000
0.00000000000 0.00000000000 11.5257244110
Ge
64
Direct
     0.251000000         0.000000000         0.250000000
     0.250000000         0.000000000         0.750000000
     0.250000000         0.500000000         0.250000000
     0.250000000         0.500000000         0.750000000
     0.750000000         0.000000000         0.250000000
     0.750000000         0.000000000         0.750000000
     0.750000000         0.500000000         0.250000000
     0.750000000         0.500000000         0.750000000
     0.125000000         0.125000000         0.125000000
     0.125000000         0.125000000         0.625000000
     0.125000000         0.625000000         0.125000000
     0.125000000         0.625000000         0.625000000
     0.625000000         0.125000000         0.125000000
     0.625000000         0.125000000         0.625000000
     0.625000000         0.625000000         0.125000000
     0.625000000         0.625000000         0.625000000
     0.250000000         0.250000000         0.000000000
     0.250000000         0.250000000         0.500000000
     0.250000000         0.750000000         0.000000000
     0.250000000         0.750000000         0.500000000
     0.750000000         0.250000000         0.000000000
     0.750000000         0.250000000         0.500000000
     0.750000000         0.750000000         0.000000000
     0.750000000         0.750000000         0.500000000
     0.125000000         0.375000000         0.375000000
     0.125000000         0.375000000         0.875000000
     0.125000000         0.875000000         0.375000000
     0.125000000         0.875000000         0.875000000
     0.625000000         0.375000000         0.375000000
     0.625000000         0.375000000         0.875000000
     0.625000000         0.875000000         0.375000000
     0.625000000         0.875000000         0.875000000
     0.000000000         0.000000000         0.000000000
     0.000000000         0.000000000         0.500000000
     0.000000000         0.500000000         0.000000000
     0.000000000         0.500000000         0.500000000
     0.500000000         0.000000000         0.000000000
     0.500000000         0.000000000         0.500000000
     0.500000000         0.500000000         0.000000000
     0.500000000         0.500000000         0.500000000
     0.375000000         0.125000000         0.375000000
     0.375000000         0.125000000         0.875000000
     0.375000000         0.625000000         0.375000000
     0.375000000         0.625000000         0.875000000
     0.875000000         0.125000000         0.375000000
     0.875000000         0.125000000         0.875000000
     0.875000000         0.625000000         0.375000000
     0.875000000         0.625000000         0.875000000
     0.000000000         0.250000000         0.250000000
     0.000000000         0.250000000         0.750000000
     0.000000000         0.750000000         0.250000000
     0.000000000         0.750000000         0.750000000
     0.500000000         0.250000000         0.250000000
     0.500000000         0.250000000         0.750000000
     0.500000000         0.750000000         0.250000000
     0.500000000         0.750000000         0.750000000
     0.375000000         0.375000000         0.125000000
     0.375000000         0.375000000         0.625000000
     0.375000000         0.875000000         0.125000000
     0.375000000         0.875000000         0.625000000
     0.875000000         0.375000000         0.125000000
     0.875000000         0.375000000         0.625000000
     0.875000000         0.875000000         0.125000000
     0.875000000         0.875000000         0.625000000
