  PREC = Accurate
IBRION = -1
 NCORE=4
 ENCUT = 500
 EDIFF = 1.0e-08
ISMEAR = 0; SIGMA = 0.03
 IALGO = 38
 LREAL = .FALSE.
 LWAVE = .FALSE.
LCHARG = .FALSE.
